50

100 5 300
97 35 295
95 1 285
95 13 294
95 3 290
95 43 285
94 3 293
93 8 280
93 28 293
91 17 294
90 37 296
89 43 297
87 14 274
83 12 261
82 14 264
79 12 280
79 33 262
78 9 277
77 5 242
77 25 261
74 13 280
71 2 230
69 6 266
68 7 229
68 15 261
65 22 225
65 31 222
64 10 227
61 26 270
58 25 229
55 18 192
55 7 243
54 13 213
53 8 290
53 22 199
51 18 251
51 7 280
49 24 184
46 18 256
44 18 297
42 20 194
41 6 276
39 19 132
38 16 248
37 16 134
37 15 146
37 11 214
35 14 141
33 7 197
31 16 296
